p cnf 156 792
1 -79 -61 0
-1 79 -61 0
1 79 -62 0
-1 -79 -62 0
21 -79 -67 0
-21 79 -67 0
21 79 -68 0
-21 -79 -68 0
41 -79 -73 0
-41 79 -73 0
41 79 -74 0
-41 -79 -74 0
2 -61 0
2 -62 0
61 -61 0
62 -62 0
22 -67 0
22 -68 0
67 -67 0
68 -68 0
42 -73 0
42 -74 0
73 -73 0
74 -74 0
3 -80 -61 0
-3 80 -61 0
3 80 -62 0
-3 -80 -62 0
23 -80 -67 0
-23 80 -67 0
23 80 -68 0
-23 -80 -68 0
43 -80 -73 0
-43 80 -73 0
43 80 -74 0
-43 -80 -74 0
4 -81 -61 0
-4 81 -61 0
4 81 -62 0
-4 -81 -62 0
24 -81 -67 0
-24 81 -67 0
24 81 -68 0
-24 -81 -68 0
44 -81 -73 0
-44 81 -73 0
44 81 -74 0
-44 -81 -74 0
5 -82 -61 0
-5 82 -61 0
5 82 -62 0
-5 -82 -62 0
25 -82 -67 0
-25 82 -67 0
25 82 -68 0
-25 -82 -68 0
45 -82 -73 0
-45 82 -73 0
45 82 -74 0
-45 -82 -74 0
6 -61 0
6 -62 0
61 -61 0
62 -62 0
26 -67 0
26 -68 0
67 -67 0
68 -68 0
46 -73 0
46 -74 0
73 -73 0
74 -74 0
7 -61 0
7 -62 0
61 -61 0
62 -62 0
27 -67 0
27 -68 0
67 -67 0
68 -68 0
47 -73 0
47 -74 0
73 -73 0
74 -74 0
8 -83 -61 0
-8 83 -61 0
8 83 -62 0
-8 -83 -62 0
28 -83 -67 0
-28 83 -67 0
28 83 -68 0
-28 -83 -68 0
48 -83 -73 0
-48 83 -73 0
48 83 -74 0
-48 -83 -74 0
9 -61 0
9 -62 0
61 -61 0
62 -62 0
29 -67 0
29 -68 0
67 -67 0
68 -68 0
49 -73 0
49 -74 0
73 -73 0
74 -74 0
-10 -61 0
-10 -62 0
61 -61 0
62 -62 0
-30 -67 0
-30 -68 0
67 -67 0
68 -68 0
-50 -73 0
-50 -74 0
73 -73 0
74 -74 0
-11 -61 0
-11 -62 0
61 -61 0
62 -62 0
-31 -67 0
-31 -68 0
67 -67 0
68 -68 0
-51 -73 0
-51 -74 0
73 -73 0
74 -74 0
12 -61 0
12 -62 0
61 -61 0
62 -62 0
32 -67 0
32 -68 0
67 -67 0
68 -68 0
52 -73 0
52 -74 0
73 -73 0
74 -74 0
13 -61 0
13 -62 0
61 -61 0
62 -62 0
33 -67 0
33 -68 0
67 -67 0
68 -68 0
53 -73 0
53 -74 0
73 -73 0
74 -74 0
-14 -61 0
-14 -62 0
61 -61 0
62 -62 0
-34 -67 0
-34 -68 0
67 -67 0
68 -68 0
-54 -73 0
-54 -74 0
73 -73 0
74 -74 0
-15 -61 0
-15 -62 0
61 -61 0
62 -62 0
-35 -67 0
-35 -68 0
67 -67 0
68 -68 0
-55 -73 0
-55 -74 0
73 -73 0
74 -74 0
16 -61 0
16 -62 0
61 -61 0
62 -62 0
36 -67 0
36 -68 0
67 -67 0
68 -68 0
56 -73 0
56 -74 0
73 -73 0
74 -74 0
17 -61 0
17 -62 0
61 -61 0
62 -62 0
37 -67 0
37 -68 0
67 -67 0
68 -68 0
57 -73 0
57 -74 0
73 -73 0
74 -74 0
18 -61 0
18 -62 0
61 -61 0
62 -62 0
38 -67 0
38 -68 0
67 -67 0
68 -68 0
58 -73 0
58 -74 0
73 -73 0
74 -74 0
19 -61 0
19 -62 0
61 -61 0
62 -62 0
39 -67 0
39 -68 0
67 -67 0
68 -68 0
59 -73 0
59 -74 0
73 -73 0
74 -74 0
20 -61 0
20 -62 0
61 -61 0
62 -62 0
40 -67 0
40 -68 0
67 -67 0
68 -68 0
60 -73 0
60 -74 0
73 -73 0
74 -74 0
-139 61 0
139 -61 0
-140 62 0
139 -62 0
-139 -61 0
-140 -62 0
-145 61 139 0
145 -61 0
145 -139 0
-146 62 140 0
146 -62 0
146 -140 0
-145 -67 0
-146 -68 0
-151 67 145 0
151 -67 0
151 -145 0
-152 68 146 0
152 -68 0
152 -146 0
-151 -73 0
-152 -74 0
151 0
152 0
1 -84 -63 0
-1 84 -63 0
1 84 -64 0
-1 -84 -64 0
21 -84 -69 0
-21 84 -69 0
21 84 -70 0
-21 -84 -70 0
41 -84 -75 0
-41 84 -75 0
41 84 -76 0
-41 -84 -76 0
2 -85 -63 0
-2 85 -63 0
2 85 -64 0
-2 -85 -64 0
22 -85 -69 0
-22 85 -69 0
22 85 -70 0
-22 -85 -70 0
42 -85 -75 0
-42 85 -75 0
42 85 -76 0
-42 -85 -76 0
3 -63 0
3 -64 0
63 -63 0
64 -64 0
23 -69 0
23 -70 0
69 -69 0
70 -70 0
43 -75 0
43 -76 0
75 -75 0
76 -76 0
4 -63 0
4 -64 0
63 -63 0
64 -64 0
24 -69 0
24 -70 0
69 -69 0
70 -70 0
44 -75 0
44 -76 0
75 -75 0
76 -76 0
5 -86 -63 0
-5 86 -63 0
5 86 -64 0
-5 -86 -64 0
25 -86 -69 0
-25 86 -69 0
25 86 -70 0
-25 -86 -70 0
45 -86 -75 0
-45 86 -75 0
45 86 -76 0
-45 -86 -76 0
6 -63 0
6 -64 0
63 -63 0
64 -64 0
26 -69 0
26 -70 0
69 -69 0
70 -70 0
46 -75 0
46 -76 0
75 -75 0
76 -76 0
7 -63 0
7 -64 0
63 -63 0
64 -64 0
27 -69 0
27 -70 0
69 -69 0
70 -70 0
47 -75 0
47 -76 0
75 -75 0
76 -76 0
8 -87 -63 0
-8 87 -63 0
8 87 -64 0
-8 -87 -64 0
28 -87 -69 0
-28 87 -69 0
28 87 -70 0
-28 -87 -70 0
48 -87 -75 0
-48 87 -75 0
48 87 -76 0
-48 -87 -76 0
9 -88 -63 0
-9 88 -63 0
9 88 -64 0
-9 -88 -64 0
29 -88 -69 0
-29 88 -69 0
29 88 -70 0
-29 -88 -70 0
49 -88 -75 0
-49 88 -75 0
49 88 -76 0
-49 -88 -76 0
10 -89 -63 0
-10 89 -63 0
10 89 -64 0
-10 -89 -64 0
30 -89 -69 0
-30 89 -69 0
30 89 -70 0
-30 -89 -70 0
50 -89 -75 0
-50 89 -75 0
50 89 -76 0
-50 -89 -76 0
11 -63 0
11 -64 0
63 -63 0
64 -64 0
31 -69 0
31 -70 0
69 -69 0
70 -70 0
51 -75 0
51 -76 0
75 -75 0
76 -76 0
12 -90 -63 0
-12 90 -63 0
12 90 -64 0
-12 -90 -64 0
32 -90 -69 0
-32 90 -69 0
32 90 -70 0
-32 -90 -70 0
52 -90 -75 0
-52 90 -75 0
52 90 -76 0
-52 -90 -76 0
13 -63 0
13 -64 0
63 -63 0
64 -64 0
33 -69 0
33 -70 0
69 -69 0
70 -70 0
53 -75 0
53 -76 0
75 -75 0
76 -76 0
14 -91 -63 0
-14 91 -63 0
14 91 -64 0
-14 -91 -64 0
34 -91 -69 0
-34 91 -69 0
34 91 -70 0
-34 -91 -70 0
54 -91 -75 0
-54 91 -75 0
54 91 -76 0
-54 -91 -76 0
15 -92 -63 0
-15 92 -63 0
15 92 -64 0
-15 -92 -64 0
35 -92 -69 0
-35 92 -69 0
35 92 -70 0
-35 -92 -70 0
55 -92 -75 0
-55 92 -75 0
55 92 -76 0
-55 -92 -76 0
16 -63 0
16 -64 0
63 -63 0
64 -64 0
36 -69 0
36 -70 0
69 -69 0
70 -70 0
56 -75 0
56 -76 0
75 -75 0
76 -76 0
17 -93 -63 0
-17 93 -63 0
17 93 -64 0
-17 -93 -64 0
37 -93 -69 0
-37 93 -69 0
37 93 -70 0
-37 -93 -70 0
57 -93 -75 0
-57 93 -75 0
57 93 -76 0
-57 -93 -76 0
18 -94 -63 0
-18 94 -63 0
18 94 -64 0
-18 -94 -64 0
38 -94 -69 0
-38 94 -69 0
38 94 -70 0
-38 -94 -70 0
58 -94 -75 0
-58 94 -75 0
58 94 -76 0
-58 -94 -76 0
19 -95 -63 0
-19 95 -63 0
19 95 -64 0
-19 -95 -64 0
39 -95 -69 0
-39 95 -69 0
39 95 -70 0
-39 -95 -70 0
59 -95 -75 0
-59 95 -75 0
59 95 -76 0
-59 -95 -76 0
20 -63 0
20 -64 0
63 -63 0
64 -64 0
40 -69 0
40 -70 0
69 -69 0
70 -70 0
60 -75 0
60 -76 0
75 -75 0
76 -76 0
-141 63 0
141 -63 0
-142 64 0
141 -64 0
-141 -63 0
-142 -64 0
-147 63 141 0
147 -63 0
147 -141 0
-148 64 142 0
148 -64 0
148 -142 0
-147 -69 0
-148 -70 0
-153 69 147 0
153 -69 0
153 -147 0
-154 70 148 0
154 -70 0
154 -148 0
-153 -75 0
-154 -76 0
153 0
154 0
1 -96 -65 0
-1 96 -65 0
1 96 -66 0
-1 -96 -66 0
21 -96 -71 0
-21 96 -71 0
21 96 -72 0
-21 -96 -72 0
41 -96 -77 0
-41 96 -77 0
41 96 -78 0
-41 -96 -78 0
2 -65 0
2 -66 0
65 -65 0
66 -66 0
22 -71 0
22 -72 0
71 -71 0
72 -72 0
42 -77 0
42 -78 0
77 -77 0
78 -78 0
3 -65 0
3 -66 0
65 -65 0
66 -66 0
23 -71 0
23 -72 0
71 -71 0
72 -72 0
43 -77 0
43 -78 0
77 -77 0
78 -78 0
4 -65 0
4 -66 0
65 -65 0
66 -66 0
24 -71 0
24 -72 0
71 -71 0
72 -72 0
44 -77 0
44 -78 0
77 -77 0
78 -78 0
5 -65 0
5 -66 0
65 -65 0
66 -66 0
25 -71 0
25 -72 0
71 -71 0
72 -72 0
45 -77 0
45 -78 0
77 -77 0
78 -78 0
6 -65 0
6 -66 0
65 -65 0
66 -66 0
26 -71 0
26 -72 0
71 -71 0
72 -72 0
46 -77 0
46 -78 0
77 -77 0
78 -78 0
7 -65 0
7 -66 0
65 -65 0
66 -66 0
27 -71 0
27 -72 0
71 -71 0
72 -72 0
47 -77 0
47 -78 0
77 -77 0
78 -78 0
-8 -65 0
-8 -66 0
65 -65 0
66 -66 0
-28 -71 0
-28 -72 0
71 -71 0
72 -72 0
-48 -77 0
-48 -78 0
77 -77 0
78 -78 0
9 -65 0
9 -66 0
65 -65 0
66 -66 0
29 -71 0
29 -72 0
71 -71 0
72 -72 0
49 -77 0
49 -78 0
77 -77 0
78 -78 0
10 -97 -65 0
-10 97 -65 0
10 97 -66 0
-10 -97 -66 0
30 -97 -71 0
-30 97 -71 0
30 97 -72 0
-30 -97 -72 0
50 -97 -77 0
-50 97 -77 0
50 97 -78 0
-50 -97 -78 0
11 -65 0
11 -66 0
65 -65 0
66 -66 0
31 -71 0
31 -72 0
71 -71 0
72 -72 0
51 -77 0
51 -78 0
77 -77 0
78 -78 0
12 -98 -65 0
-12 98 -65 0
12 98 -66 0
-12 -98 -66 0
32 -98 -71 0
-32 98 -71 0
32 98 -72 0
-32 -98 -72 0
52 -98 -77 0
-52 98 -77 0
52 98 -78 0
-52 -98 -78 0
13 -65 0
13 -66 0
65 -65 0
66 -66 0
33 -71 0
33 -72 0
71 -71 0
72 -72 0
53 -77 0
53 -78 0
77 -77 0
78 -78 0
14 -99 -65 0
-14 99 -65 0
14 99 -66 0
-14 -99 -66 0
34 -99 -71 0
-34 99 -71 0
34 99 -72 0
-34 -99 -72 0
54 -99 -77 0
-54 99 -77 0
54 99 -78 0
-54 -99 -78 0
15 -100 -65 0
-15 100 -65 0
15 100 -66 0
-15 -100 -66 0
35 -100 -71 0
-35 100 -71 0
35 100 -72 0
-35 -100 -72 0
55 -100 -77 0
-55 100 -77 0
55 100 -78 0
-55 -100 -78 0
16 -65 0
16 -66 0
65 -65 0
66 -66 0
36 -71 0
36 -72 0
71 -71 0
72 -72 0
56 -77 0
56 -78 0
77 -77 0
78 -78 0
17 -101 -65 0
-17 101 -65 0
17 101 -66 0
-17 -101 -66 0
37 -101 -71 0
-37 101 -71 0
37 101 -72 0
-37 -101 -72 0
57 -101 -77 0
-57 101 -77 0
57 101 -78 0
-57 -101 -78 0
18 -65 0
18 -66 0
65 -65 0
66 -66 0
38 -71 0
38 -72 0
71 -71 0
72 -72 0
58 -77 0
58 -78 0
77 -77 0
78 -78 0
19 -102 -65 0
-19 102 -65 0
19 102 -66 0
-19 -102 -66 0
39 -102 -71 0
-39 102 -71 0
39 102 -72 0
-39 -102 -72 0
59 -102 -77 0
-59 102 -77 0
59 102 -78 0
-59 -102 -78 0
20 -65 0
20 -66 0
65 -65 0
66 -66 0
40 -71 0
40 -72 0
71 -71 0
72 -72 0
60 -77 0
60 -78 0
77 -77 0
78 -78 0
-143 65 0
143 -65 0
-144 66 0
143 -66 0
-143 -65 0
-144 -66 0
-149 65 143 0
149 -65 0
149 -143 0
-150 66 144 0
150 -66 0
150 -144 0
-149 -71 0
-150 -72 0
-155 71 149 0
155 -71 0
155 -149 0
-156 72 150 0
156 -72 0
156 -150 0
-155 -77 0
-156 -78 0
155 0
156 0
